p cnf 40 22
r 0.534 40 0
e 20 0
r 0.152 39 0
e 19 0
r 0.974 38 0
e 18 0
r 0.219 37 0
e 17 0
r 0.938 36 0
e 16 0
r 0.506 35 0
e 15 0
r 0.725 34 0
e 14 0
r 0.891 33 0
e 13 0
r 0.06 32 0
e 12 0
r 0.075 31 0
e 11 0
r 0.399 30 0
e 10 0
r 0.657 29 0
e 9 0
r 0.525 28 0
e 8 0
r 0.042 27 0
e 7 0
r 0.831 26 0
e 6 0
r 0.218 25 0
e 5 0
r 0.231 24 0
e 4 0
r 0.219 23 0
e 3 0
r 0.742 22 0
e 2 0
r 0.703 21 0
e 1 0
-20 0
20 39 -19 -38 -18 0
19 38 -18 -37 -17 0
18 37 -17 -36 -16 0
17 36 -16 -35 -15 0
16 35 -15 -34 -14 0
15 34 -14 -33 -13 0
14 33 -13 -32 -12 0
13 32 -12 -31 -11 0
12 31 -11 -30 -10 0
11 30 -10 -29 -9 0
10 29 -9 -28 -8 0
9 28 -8 -27 -7 0
8 27 -7 -26 -6 0
7 26 -6 -25 -5 0
6 25 -5 -24 -4 0
5 24 -4 -23 -3 0
4 23 -3 -22 -2 0
3 22 -2 -21 -1 0
2 1 0
2 -1 0
-2 1 0
